6943
5858
8010
2539
8960
7100
9870
5482
4411
4358
7545
555
8494
9947
9253
2492
6238
7566
1474
6446
8274
3140
1595
5472
4760
2337
8345
1937
2143
4431
972
4134
2749
4190
2261
640
4715
9469
7386
1326
4151
3067
2761
6411
8203
4301
5597
1117
9103
9872
